NAME: random problem
TYPE: MTSP
COMMENT: MTSP problem for MRS UAV summer school
DIMENSION: 20
NUMBER_OF_ROBOTS: 2
START_TARGET_INDEXES: 1, 2
NEIGHBORHOOD_RADIUS: 2
EDGE_WEIGHT_TYPE: EUC_2D
NODE_COORD_SECTION
1 15.0 -21.0
2 -5.0 -25.0
3 -36.0 -7.4
4 -8.1 -15.5
5 -4.9 -14.8
6 21.1 -17.7
7 13.5 8.8
8 -0.1 10.3
9 -1.9 -4.1
10 23.2 13.9
11 -24.8 -20.1
12 -16.5 -23.7
13 22.9 9.4
14 22.8 -2.2
15 20.4 -17.9
16 10.7 -21.9
17 -2.9 -0.6
18 -23.4 -26.1
19 9.5 -21.1
20 8.5 -24.4
EOF
